c *********************************
c * Circuit generated by BenCGen
c *
c * CarrySelectAdder_29_29_29_InOut_G4T
c *
c * Ports with 1 gate(s): 51
c * Ports with 2 gate(s): 381
c * Ports with 4 gate(s): 12
c * Total gates: 444
c *********************************
p cnf 502 1413
1 90 0
-1 -90 0
1 -89 0
90 -89 0
-1 -90 89 0
89 107 0
-89 -107 0
1 30 -93 0
-1 30 93 0
1 -30 93 0
-1 -30 -93 0
93 89 -59 0
-93 89 59 0
93 -89 59 0
-93 -89 -59 0
89 -94 0
93 -94 0
-89 -93 94 0
30 -95 0
1 -95 0
-30 -1 95 0
-94 92 0
-95 92 0
94 95 -92 0
2 31 -97 0
-2 31 97 0
2 -31 97 0
-2 -31 -97 0
97 92 -60 0
-97 92 60 0
97 -92 60 0
-97 -92 -60 0
92 -98 0
97 -98 0
-92 -97 98 0
31 -99 0
2 -99 0
-31 -2 99 0
-98 96 0
-99 96 0
98 99 -96 0
3 32 -101 0
-3 32 101 0
3 -32 101 0
-3 -32 -101 0
101 96 -61 0
-101 96 61 0
101 -96 61 0
-101 -96 -61 0
96 -102 0
101 -102 0
-96 -101 102 0
32 -103 0
3 -103 0
-32 -3 103 0
-102 100 0
-103 100 0
102 103 -100 0
4 33 -104 0
-4 33 104 0
4 -33 104 0
-4 -33 -104 0
104 100 -62 0
-104 100 62 0
104 -100 62 0
-104 -100 -62 0
100 -105 0
104 -105 0
-100 -104 105 0
33 -106 0
4 -106 0
-33 -4 106 0
-105 91 0
-106 91 0
105 106 -91 0
5 34 -118 0
-5 34 118 0
5 -34 118 0
-5 -34 -118 0
118 89 -108 0
-118 89 108 0
118 -89 108 0
-118 -89 -108 0
89 -119 0
118 -119 0
-89 -118 119 0
34 -120 0
5 -120 0
-34 -5 120 0
-119 117 0
-120 117 0
119 120 -117 0
6 35 -122 0
-6 35 122 0
6 -35 122 0
-6 -35 -122 0
122 117 -109 0
-122 117 109 0
122 -117 109 0
-122 -117 -109 0
117 -123 0
122 -123 0
-117 -122 123 0
35 -124 0
6 -124 0
-35 -6 124 0
-123 121 0
-124 121 0
123 124 -121 0
7 36 -126 0
-7 36 126 0
7 -36 126 0
-7 -36 -126 0
126 121 -110 0
-126 121 110 0
126 -121 110 0
-126 -121 -110 0
121 -127 0
126 -127 0
-121 -126 127 0
36 -128 0
7 -128 0
-36 -7 128 0
-127 125 0
-128 125 0
127 128 -125 0
8 37 -129 0
-8 37 129 0
8 -37 129 0
-8 -37 -129 0
129 125 -111 0
-129 125 111 0
129 -125 111 0
-129 -125 -111 0
125 -130 0
129 -130 0
-125 -129 130 0
37 -131 0
8 -131 0
-37 -8 131 0
-130 116 0
-131 116 0
130 131 -116 0
118 -132 0
122 -132 0
126 -132 0
129 -132 0
-118 -122 -126 -129 132 0
131 -133 0
-131 133 0
5 34 -136 0
-5 34 136 0
5 -34 136 0
-5 -34 -136 0
136 107 -112 0
-136 107 112 0
136 -107 112 0
-136 -107 -112 0
107 -137 0
136 -137 0
-107 -136 137 0
34 -138 0
5 -138 0
-34 -5 138 0
-137 135 0
-138 135 0
137 138 -135 0
6 35 -140 0
-6 35 140 0
6 -35 140 0
-6 -35 -140 0
140 135 -113 0
-140 135 113 0
140 -135 113 0
-140 -135 -113 0
135 -141 0
140 -141 0
-135 -140 141 0
35 -142 0
6 -142 0
-35 -6 142 0
-141 139 0
-142 139 0
141 142 -139 0
7 36 -144 0
-7 36 144 0
7 -36 144 0
-7 -36 -144 0
144 139 -114 0
-144 139 114 0
144 -139 114 0
-144 -139 -114 0
139 -145 0
144 -145 0
-139 -144 145 0
36 -146 0
7 -146 0
-36 -7 146 0
-145 143 0
-146 143 0
145 146 -143 0
8 37 -147 0
-8 37 147 0
8 -37 147 0
-8 -37 -147 0
147 143 -115 0
-147 143 115 0
147 -143 115 0
-147 -143 -115 0
143 -148 0
147 -148 0
-143 -147 148 0
37 -149 0
8 -149 0
-37 -8 149 0
-148 134 0
-149 134 0
148 149 -134 0
136 -150 0
140 -150 0
144 -150 0
147 -150 0
-136 -140 -144 -147 150 0
149 -151 0
-149 151 0
9 38 -180 0
-9 38 180 0
9 -38 180 0
-9 -38 -180 0
180 89 -170 0
-180 89 170 0
180 -89 170 0
-180 -89 -170 0
89 -181 0
180 -181 0
-89 -180 181 0
38 -182 0
9 -182 0
-38 -9 182 0
-181 179 0
-182 179 0
181 182 -179 0
10 39 -184 0
-10 39 184 0
10 -39 184 0
-10 -39 -184 0
184 179 -171 0
-184 179 171 0
184 -179 171 0
-184 -179 -171 0
179 -185 0
184 -185 0
-179 -184 185 0
39 -186 0
10 -186 0
-39 -10 186 0
-185 183 0
-186 183 0
185 186 -183 0
11 40 -188 0
-11 40 188 0
11 -40 188 0
-11 -40 -188 0
188 183 -172 0
-188 183 172 0
188 -183 172 0
-188 -183 -172 0
183 -189 0
188 -189 0
-183 -188 189 0
40 -190 0
11 -190 0
-40 -11 190 0
-189 187 0
-190 187 0
189 190 -187 0
12 41 -191 0
-12 41 191 0
12 -41 191 0
-12 -41 -191 0
191 187 -173 0
-191 187 173 0
191 -187 173 0
-191 -187 -173 0
187 -192 0
191 -192 0
-187 -191 192 0
41 -193 0
12 -193 0
-41 -12 193 0
-192 178 0
-193 178 0
192 193 -178 0
180 -194 0
184 -194 0
188 -194 0
191 -194 0
-180 -184 -188 -191 194 0
193 -195 0
-193 195 0
9 38 -198 0
-9 38 198 0
9 -38 198 0
-9 -38 -198 0
198 107 -174 0
-198 107 174 0
198 -107 174 0
-198 -107 -174 0
107 -199 0
198 -199 0
-107 -198 199 0
38 -200 0
9 -200 0
-38 -9 200 0
-199 197 0
-200 197 0
199 200 -197 0
10 39 -202 0
-10 39 202 0
10 -39 202 0
-10 -39 -202 0
202 197 -175 0
-202 197 175 0
202 -197 175 0
-202 -197 -175 0
197 -203 0
202 -203 0
-197 -202 203 0
39 -204 0
10 -204 0
-39 -10 204 0
-203 201 0
-204 201 0
203 204 -201 0
11 40 -206 0
-11 40 206 0
11 -40 206 0
-11 -40 -206 0
206 201 -176 0
-206 201 176 0
206 -201 176 0
-206 -201 -176 0
201 -207 0
206 -207 0
-201 -206 207 0
40 -208 0
11 -208 0
-40 -11 208 0
-207 205 0
-208 205 0
207 208 -205 0
12 41 -209 0
-12 41 209 0
12 -41 209 0
-12 -41 -209 0
209 205 -177 0
-209 205 177 0
209 -205 177 0
-209 -205 -177 0
205 -210 0
209 -210 0
-205 -209 210 0
41 -211 0
12 -211 0
-41 -12 211 0
-210 196 0
-211 196 0
210 211 -196 0
198 -212 0
202 -212 0
206 -212 0
209 -212 0
-198 -202 -206 -209 212 0
211 -213 0
-211 213 0
13 42 -242 0
-13 42 242 0
13 -42 242 0
-13 -42 -242 0
242 89 -232 0
-242 89 232 0
242 -89 232 0
-242 -89 -232 0
89 -243 0
242 -243 0
-89 -242 243 0
42 -244 0
13 -244 0
-42 -13 244 0
-243 241 0
-244 241 0
243 244 -241 0
14 43 -246 0
-14 43 246 0
14 -43 246 0
-14 -43 -246 0
246 241 -233 0
-246 241 233 0
246 -241 233 0
-246 -241 -233 0
241 -247 0
246 -247 0
-241 -246 247 0
43 -248 0
14 -248 0
-43 -14 248 0
-247 245 0
-248 245 0
247 248 -245 0
15 44 -250 0
-15 44 250 0
15 -44 250 0
-15 -44 -250 0
250 245 -234 0
-250 245 234 0
250 -245 234 0
-250 -245 -234 0
245 -251 0
250 -251 0
-245 -250 251 0
44 -252 0
15 -252 0
-44 -15 252 0
-251 249 0
-252 249 0
251 252 -249 0
16 45 -253 0
-16 45 253 0
16 -45 253 0
-16 -45 -253 0
253 249 -235 0
-253 249 235 0
253 -249 235 0
-253 -249 -235 0
249 -254 0
253 -254 0
-249 -253 254 0
45 -255 0
16 -255 0
-45 -16 255 0
-254 240 0
-255 240 0
254 255 -240 0
242 -256 0
246 -256 0
250 -256 0
253 -256 0
-242 -246 -250 -253 256 0
255 -257 0
-255 257 0
13 42 -260 0
-13 42 260 0
13 -42 260 0
-13 -42 -260 0
260 107 -236 0
-260 107 236 0
260 -107 236 0
-260 -107 -236 0
107 -261 0
260 -261 0
-107 -260 261 0
42 -262 0
13 -262 0
-42 -13 262 0
-261 259 0
-262 259 0
261 262 -259 0
14 43 -264 0
-14 43 264 0
14 -43 264 0
-14 -43 -264 0
264 259 -237 0
-264 259 237 0
264 -259 237 0
-264 -259 -237 0
259 -265 0
264 -265 0
-259 -264 265 0
43 -266 0
14 -266 0
-43 -14 266 0
-265 263 0
-266 263 0
265 266 -263 0
15 44 -268 0
-15 44 268 0
15 -44 268 0
-15 -44 -268 0
268 263 -238 0
-268 263 238 0
268 -263 238 0
-268 -263 -238 0
263 -269 0
268 -269 0
-263 -268 269 0
44 -270 0
15 -270 0
-44 -15 270 0
-269 267 0
-270 267 0
269 270 -267 0
16 45 -271 0
-16 45 271 0
16 -45 271 0
-16 -45 -271 0
271 267 -239 0
-271 267 239 0
271 -267 239 0
-271 -267 -239 0
267 -272 0
271 -272 0
-267 -271 272 0
45 -273 0
16 -273 0
-45 -16 273 0
-272 258 0
-273 258 0
272 273 -258 0
260 -274 0
264 -274 0
268 -274 0
271 -274 0
-260 -264 -268 -271 274 0
273 -275 0
-273 275 0
17 46 -304 0
-17 46 304 0
17 -46 304 0
-17 -46 -304 0
304 89 -294 0
-304 89 294 0
304 -89 294 0
-304 -89 -294 0
89 -305 0
304 -305 0
-89 -304 305 0
46 -306 0
17 -306 0
-46 -17 306 0
-305 303 0
-306 303 0
305 306 -303 0
18 47 -308 0
-18 47 308 0
18 -47 308 0
-18 -47 -308 0
308 303 -295 0
-308 303 295 0
308 -303 295 0
-308 -303 -295 0
303 -309 0
308 -309 0
-303 -308 309 0
47 -310 0
18 -310 0
-47 -18 310 0
-309 307 0
-310 307 0
309 310 -307 0
19 48 -312 0
-19 48 312 0
19 -48 312 0
-19 -48 -312 0
312 307 -296 0
-312 307 296 0
312 -307 296 0
-312 -307 -296 0
307 -313 0
312 -313 0
-307 -312 313 0
48 -314 0
19 -314 0
-48 -19 314 0
-313 311 0
-314 311 0
313 314 -311 0
20 49 -315 0
-20 49 315 0
20 -49 315 0
-20 -49 -315 0
315 311 -297 0
-315 311 297 0
315 -311 297 0
-315 -311 -297 0
311 -316 0
315 -316 0
-311 -315 316 0
49 -317 0
20 -317 0
-49 -20 317 0
-316 302 0
-317 302 0
316 317 -302 0
304 -318 0
308 -318 0
312 -318 0
315 -318 0
-304 -308 -312 -315 318 0
317 -319 0
-317 319 0
17 46 -322 0
-17 46 322 0
17 -46 322 0
-17 -46 -322 0
322 107 -298 0
-322 107 298 0
322 -107 298 0
-322 -107 -298 0
107 -323 0
322 -323 0
-107 -322 323 0
46 -324 0
17 -324 0
-46 -17 324 0
-323 321 0
-324 321 0
323 324 -321 0
18 47 -326 0
-18 47 326 0
18 -47 326 0
-18 -47 -326 0
326 321 -299 0
-326 321 299 0
326 -321 299 0
-326 -321 -299 0
321 -327 0
326 -327 0
-321 -326 327 0
47 -328 0
18 -328 0
-47 -18 328 0
-327 325 0
-328 325 0
327 328 -325 0
19 48 -330 0
-19 48 330 0
19 -48 330 0
-19 -48 -330 0
330 325 -300 0
-330 325 300 0
330 -325 300 0
-330 -325 -300 0
325 -331 0
330 -331 0
-325 -330 331 0
48 -332 0
19 -332 0
-48 -19 332 0
-331 329 0
-332 329 0
331 332 -329 0
20 49 -333 0
-20 49 333 0
20 -49 333 0
-20 -49 -333 0
333 329 -301 0
-333 329 301 0
333 -329 301 0
-333 -329 -301 0
329 -334 0
333 -334 0
-329 -333 334 0
49 -335 0
20 -335 0
-49 -20 335 0
-334 320 0
-335 320 0
334 335 -320 0
322 -336 0
326 -336 0
330 -336 0
333 -336 0
-322 -326 -330 -333 336 0
335 -337 0
-335 337 0
21 50 -366 0
-21 50 366 0
21 -50 366 0
-21 -50 -366 0
366 89 -356 0
-366 89 356 0
366 -89 356 0
-366 -89 -356 0
89 -367 0
366 -367 0
-89 -366 367 0
50 -368 0
21 -368 0
-50 -21 368 0
-367 365 0
-368 365 0
367 368 -365 0
22 51 -370 0
-22 51 370 0
22 -51 370 0
-22 -51 -370 0
370 365 -357 0
-370 365 357 0
370 -365 357 0
-370 -365 -357 0
365 -371 0
370 -371 0
-365 -370 371 0
51 -372 0
22 -372 0
-51 -22 372 0
-371 369 0
-372 369 0
371 372 -369 0
23 52 -374 0
-23 52 374 0
23 -52 374 0
-23 -52 -374 0
374 369 -358 0
-374 369 358 0
374 -369 358 0
-374 -369 -358 0
369 -375 0
374 -375 0
-369 -374 375 0
52 -376 0
23 -376 0
-52 -23 376 0
-375 373 0
-376 373 0
375 376 -373 0
24 53 -377 0
-24 53 377 0
24 -53 377 0
-24 -53 -377 0
377 373 -359 0
-377 373 359 0
377 -373 359 0
-377 -373 -359 0
373 -378 0
377 -378 0
-373 -377 378 0
53 -379 0
24 -379 0
-53 -24 379 0
-378 364 0
-379 364 0
378 379 -364 0
366 -380 0
370 -380 0
374 -380 0
377 -380 0
-366 -370 -374 -377 380 0
379 -381 0
-379 381 0
21 50 -384 0
-21 50 384 0
21 -50 384 0
-21 -50 -384 0
384 107 -360 0
-384 107 360 0
384 -107 360 0
-384 -107 -360 0
107 -385 0
384 -385 0
-107 -384 385 0
50 -386 0
21 -386 0
-50 -21 386 0
-385 383 0
-386 383 0
385 386 -383 0
22 51 -388 0
-22 51 388 0
22 -51 388 0
-22 -51 -388 0
388 383 -361 0
-388 383 361 0
388 -383 361 0
-388 -383 -361 0
383 -389 0
388 -389 0
-383 -388 389 0
51 -390 0
22 -390 0
-51 -22 390 0
-389 387 0
-390 387 0
389 390 -387 0
23 52 -392 0
-23 52 392 0
23 -52 392 0
-23 -52 -392 0
392 387 -362 0
-392 387 362 0
392 -387 362 0
-392 -387 -362 0
387 -393 0
392 -393 0
-387 -392 393 0
52 -394 0
23 -394 0
-52 -23 394 0
-393 391 0
-394 391 0
393 394 -391 0
24 53 -395 0
-24 53 395 0
24 -53 395 0
-24 -53 -395 0
395 391 -363 0
-395 391 363 0
395 -391 363 0
-395 -391 -363 0
391 -396 0
395 -396 0
-391 -395 396 0
53 -397 0
24 -397 0
-53 -24 397 0
-396 382 0
-397 382 0
396 397 -382 0
384 -398 0
388 -398 0
392 -398 0
395 -398 0
-384 -388 -392 -395 398 0
397 -399 0
-397 399 0
25 54 -428 0
-25 54 428 0
25 -54 428 0
-25 -54 -428 0
428 89 -418 0
-428 89 418 0
428 -89 418 0
-428 -89 -418 0
89 -429 0
428 -429 0
-89 -428 429 0
54 -430 0
25 -430 0
-54 -25 430 0
-429 427 0
-430 427 0
429 430 -427 0
26 55 -432 0
-26 55 432 0
26 -55 432 0
-26 -55 -432 0
432 427 -419 0
-432 427 419 0
432 -427 419 0
-432 -427 -419 0
427 -433 0
432 -433 0
-427 -432 433 0
55 -434 0
26 -434 0
-55 -26 434 0
-433 431 0
-434 431 0
433 434 -431 0
27 56 -436 0
-27 56 436 0
27 -56 436 0
-27 -56 -436 0
436 431 -420 0
-436 431 420 0
436 -431 420 0
-436 -431 -420 0
431 -437 0
436 -437 0
-431 -436 437 0
56 -438 0
27 -438 0
-56 -27 438 0
-437 435 0
-438 435 0
437 438 -435 0
28 57 -439 0
-28 57 439 0
28 -57 439 0
-28 -57 -439 0
439 435 -421 0
-439 435 421 0
439 -435 421 0
-439 -435 -421 0
435 -440 0
439 -440 0
-435 -439 440 0
57 -441 0
28 -441 0
-57 -28 441 0
-440 426 0
-441 426 0
440 441 -426 0
428 -442 0
432 -442 0
436 -442 0
439 -442 0
-428 -432 -436 -439 442 0
441 -443 0
-441 443 0
25 54 -446 0
-25 54 446 0
25 -54 446 0
-25 -54 -446 0
446 107 -422 0
-446 107 422 0
446 -107 422 0
-446 -107 -422 0
107 -447 0
446 -447 0
-107 -446 447 0
54 -448 0
25 -448 0
-54 -25 448 0
-447 445 0
-448 445 0
447 448 -445 0
26 55 -450 0
-26 55 450 0
26 -55 450 0
-26 -55 -450 0
450 445 -423 0
-450 445 423 0
450 -445 423 0
-450 -445 -423 0
445 -451 0
450 -451 0
-445 -450 451 0
55 -452 0
26 -452 0
-55 -26 452 0
-451 449 0
-452 449 0
451 452 -449 0
27 56 -454 0
-27 56 454 0
27 -56 454 0
-27 -56 -454 0
454 449 -424 0
-454 449 424 0
454 -449 424 0
-454 -449 -424 0
449 -455 0
454 -455 0
-449 -454 455 0
56 -456 0
27 -456 0
-56 -27 456 0
-455 453 0
-456 453 0
455 456 -453 0
28 57 -457 0
-28 57 457 0
28 -57 457 0
-28 -57 -457 0
457 453 -425 0
-457 453 425 0
457 -453 425 0
-457 -453 -425 0
453 -458 0
457 -458 0
-453 -457 458 0
57 -459 0
28 -459 0
-57 -28 459 0
-458 444 0
-459 444 0
458 459 -444 0
446 -460 0
450 -460 0
454 -460 0
457 -460 0
-446 -450 -454 -457 460 0
459 -461 0
-459 461 0
29 58 -483 0
-29 58 483 0
29 -58 483 0
-29 -58 -483 0
483 89 -480 0
-483 89 480 0
483 -89 480 0
-483 -89 -480 0
89 -484 0
483 -484 0
-89 -483 484 0
58 -485 0
29 -485 0
-58 -29 485 0
-484 482 0
-485 482 0
484 485 -482 0
483 -486 0
-483 486 0
485 -487 0
-485 487 0
29 58 -489 0
-29 58 489 0
29 -58 489 0
-29 -58 -489 0
489 107 -481 0
-489 107 481 0
489 -107 481 0
-489 -107 -481 0
107 -490 0
489 -490 0
-107 -489 490 0
58 -491 0
29 -491 0
-58 -29 491 0
-490 488 0
-491 488 0
490 491 -488 0
489 -492 0
-489 492 0
491 -493 0
-491 493 0
91 153 0
-91 -153 0
153 -154 0
108 -154 0
-153 -108 154 0
91 -155 0
112 -155 0
-91 -112 155 0
-154 63 0
-155 63 0
154 155 -63 0
91 156 0
-91 -156 0
156 -157 0
109 -157 0
-156 -109 157 0
91 -158 0
113 -158 0
-91 -113 158 0
-157 64 0
-158 64 0
157 158 -64 0
91 159 0
-91 -159 0
159 -160 0
110 -160 0
-159 -110 160 0
91 -161 0
114 -161 0
-91 -114 161 0
-160 65 0
-161 65 0
160 161 -65 0
91 162 0
-91 -162 0
162 -163 0
111 -163 0
-162 -111 163 0
91 -164 0
115 -164 0
-91 -115 164 0
-163 66 0
-164 66 0
163 164 -66 0
91 165 0
-91 -165 0
165 -166 0
116 -166 0
-165 -116 166 0
91 -167 0
134 -167 0
-91 -134 167 0
-166 152 0
-167 152 0
166 167 -152 0
91 -168 0
150 -168 0
-91 -150 168 0
-168 169 0
-152 169 0
168 152 -169 0
169 215 0
-169 -215 0
215 -216 0
170 -216 0
-215 -170 216 0
169 -217 0
174 -217 0
-169 -174 217 0
-216 67 0
-217 67 0
216 217 -67 0
169 218 0
-169 -218 0
218 -219 0
171 -219 0
-218 -171 219 0
169 -220 0
175 -220 0
-169 -175 220 0
-219 68 0
-220 68 0
219 220 -68 0
169 221 0
-169 -221 0
221 -222 0
172 -222 0
-221 -172 222 0
169 -223 0
176 -223 0
-169 -176 223 0
-222 69 0
-223 69 0
222 223 -69 0
169 224 0
-169 -224 0
224 -225 0
173 -225 0
-224 -173 225 0
169 -226 0
177 -226 0
-169 -177 226 0
-225 70 0
-226 70 0
225 226 -70 0
169 227 0
-169 -227 0
227 -228 0
178 -228 0
-227 -178 228 0
169 -229 0
196 -229 0
-169 -196 229 0
-228 214 0
-229 214 0
228 229 -214 0
169 -230 0
212 -230 0
-169 -212 230 0
-230 231 0
-214 231 0
230 214 -231 0
231 277 0
-231 -277 0
277 -278 0
232 -278 0
-277 -232 278 0
231 -279 0
236 -279 0
-231 -236 279 0
-278 71 0
-279 71 0
278 279 -71 0
231 280 0
-231 -280 0
280 -281 0
233 -281 0
-280 -233 281 0
231 -282 0
237 -282 0
-231 -237 282 0
-281 72 0
-282 72 0
281 282 -72 0
231 283 0
-231 -283 0
283 -284 0
234 -284 0
-283 -234 284 0
231 -285 0
238 -285 0
-231 -238 285 0
-284 73 0
-285 73 0
284 285 -73 0
231 286 0
-231 -286 0
286 -287 0
235 -287 0
-286 -235 287 0
231 -288 0
239 -288 0
-231 -239 288 0
-287 74 0
-288 74 0
287 288 -74 0
231 289 0
-231 -289 0
289 -290 0
240 -290 0
-289 -240 290 0
231 -291 0
258 -291 0
-231 -258 291 0
-290 276 0
-291 276 0
290 291 -276 0
231 -292 0
274 -292 0
-231 -274 292 0
-292 293 0
-276 293 0
292 276 -293 0
293 339 0
-293 -339 0
339 -340 0
294 -340 0
-339 -294 340 0
293 -341 0
298 -341 0
-293 -298 341 0
-340 75 0
-341 75 0
340 341 -75 0
293 342 0
-293 -342 0
342 -343 0
295 -343 0
-342 -295 343 0
293 -344 0
299 -344 0
-293 -299 344 0
-343 76 0
-344 76 0
343 344 -76 0
293 345 0
-293 -345 0
345 -346 0
296 -346 0
-345 -296 346 0
293 -347 0
300 -347 0
-293 -300 347 0
-346 77 0
-347 77 0
346 347 -77 0
293 348 0
-293 -348 0
348 -349 0
297 -349 0
-348 -297 349 0
293 -350 0
301 -350 0
-293 -301 350 0
-349 78 0
-350 78 0
349 350 -78 0
293 351 0
-293 -351 0
351 -352 0
302 -352 0
-351 -302 352 0
293 -353 0
320 -353 0
-293 -320 353 0
-352 338 0
-353 338 0
352 353 -338 0
293 -354 0
336 -354 0
-293 -336 354 0
-354 355 0
-338 355 0
354 338 -355 0
355 401 0
-355 -401 0
401 -402 0
356 -402 0
-401 -356 402 0
355 -403 0
360 -403 0
-355 -360 403 0
-402 79 0
-403 79 0
402 403 -79 0
355 404 0
-355 -404 0
404 -405 0
357 -405 0
-404 -357 405 0
355 -406 0
361 -406 0
-355 -361 406 0
-405 80 0
-406 80 0
405 406 -80 0
355 407 0
-355 -407 0
407 -408 0
358 -408 0
-407 -358 408 0
355 -409 0
362 -409 0
-355 -362 409 0
-408 81 0
-409 81 0
408 409 -81 0
355 410 0
-355 -410 0
410 -411 0
359 -411 0
-410 -359 411 0
355 -412 0
363 -412 0
-355 -363 412 0
-411 82 0
-412 82 0
411 412 -82 0
355 413 0
-355 -413 0
413 -414 0
364 -414 0
-413 -364 414 0
355 -415 0
382 -415 0
-355 -382 415 0
-414 400 0
-415 400 0
414 415 -400 0
355 -416 0
398 -416 0
-355 -398 416 0
-416 417 0
-400 417 0
416 400 -417 0
417 463 0
-417 -463 0
463 -464 0
418 -464 0
-463 -418 464 0
417 -465 0
422 -465 0
-417 -422 465 0
-464 83 0
-465 83 0
464 465 -83 0
417 466 0
-417 -466 0
466 -467 0
419 -467 0
-466 -419 467 0
417 -468 0
423 -468 0
-417 -423 468 0
-467 84 0
-468 84 0
467 468 -84 0
417 469 0
-417 -469 0
469 -470 0
420 -470 0
-469 -420 470 0
417 -471 0
424 -471 0
-417 -424 471 0
-470 85 0
-471 85 0
470 471 -85 0
417 472 0
-417 -472 0
472 -473 0
421 -473 0
-472 -421 473 0
417 -474 0
425 -474 0
-417 -425 474 0
-473 86 0
-474 86 0
473 474 -86 0
417 475 0
-417 -475 0
475 -476 0
426 -476 0
-475 -426 476 0
417 -477 0
444 -477 0
-417 -444 477 0
-476 462 0
-477 462 0
476 477 -462 0
417 -478 0
460 -478 0
-417 -460 478 0
-478 479 0
-462 479 0
478 462 -479 0
479 495 0
-479 -495 0
495 -496 0
480 -496 0
-495 -480 496 0
479 -497 0
481 -497 0
-479 -481 497 0
-496 87 0
-497 87 0
496 497 -87 0
479 498 0
-479 -498 0
498 -499 0
482 -499 0
-498 -482 499 0
479 -500 0
488 -500 0
-479 -488 500 0
-499 494 0
-500 494 0
499 500 -494 0
479 -501 0
492 -501 0
-479 -492 501 0
-501 502 0
-494 502 0
501 494 -502 0
502 -88 0
-502 88 0
